NAME : rat30
COMMENT : Rattled grid (Pulleyblank)
TYPE : TSP
DIMENSION : 30
EDGE_WEIGHT_TYPE : EUC_2D
NODE_COORD_SECTION
  1  6  4
  2 15 15
  3 24 18
  4 33 12
  5 48 12
  6 57 14
  7 67 10
  8 77 10
  9 86 15
 10  6 21
 11 17 26
 12 23 25
 13 32 35
 14 43 23
 15 55 35
 16 65 36
 17 78 39
 18 87 35
 19  3 53
 20 12 44
 21 28 53
 22 33 49
 23 47 46
 24 55 52
 25 64 50
 26 71 57
 27 87 57
 28  4 72
 29 15 78
 30 22 70
EOF
